2313.0 32769.0 
2313.0 32769.0 
2274.0 32991.0 
2315.0 32741.0 
2313.0 32769.0 
2283.0 32952.0 
2287.0 32861.0 
2258.0 33244.0 
2397.0 32531.0 
2244.0 33272.0 
2261.0 33143.0 
2281.0 32976.0 
2300.0 32784.0 
2356.0 32579.0 
2265.0 32996.0 
2243.0 33445.0 
2322.0 32673.0 
2229.0 33662.0 
